p cnf 134 538
-1 -105 0
-1 -106 0
-2 105 0
-2 -106 0
-3 -105 0
-3 106 0
-4 105 0
-4 106 0
-1 21 0
-1 5 0
-2 22 0
-2 6 0
-3 23 0
-3 7 0
-4 24 0
-4 8 0
-5 0
-6 0
-8 0
7 0
3 11 27 0
-3 -11 0
-3 -27 0
-11 -27 0
-9 -109 0
-9 -110 0
-10 109 0
-10 -110 0
-11 -109 0
-11 110 0
-12 109 0
-12 110 0
-9 5 13 0
-9 5 29 0
-9 13 29 0
-10 6 14 0
-10 6 30 0
-10 14 30 0
-11 7 15 0
-11 7 31 0
-11 15 31 0
-12 8 16 0
-12 8 32 0
-12 16 32 0
-9 -5 -13 -29 0
-10 -6 -14 -30 0
-11 -7 -15 -31 0
-12 -8 -16 -32 0
-13 -111 0
-13 -112 0
-14 111 0
-14 -112 0
-15 -111 0
-15 112 0
-16 111 0
-16 112 0
-13 9 17 0
-13 9 33 0
-13 17 33 0
-14 10 18 0
-14 10 34 0
-14 18 34 0
-15 11 19 0
-15 11 35 0
-15 19 35 0
-16 12 20 0
-16 12 36 0
-16 20 36 0
-13 -9 -17 -33 0
-14 -10 -18 -34 0
-15 -11 -19 -35 0
-16 -12 -20 -36 0
-17 0
-18 0
-20 0
19 0
39 15 0
-39 -15 0
-21 -115 0
-21 -116 0
-22 115 0
-22 -116 0
-23 -115 0
-23 116 0
-24 115 0
-24 116 0
-21 41 25 0
-21 41 1 0
-21 25 1 0
-22 42 26 0
-22 42 2 0
-22 26 2 0
-23 43 27 0
-23 43 3 0
-23 27 3 0
-24 44 28 0
-24 44 4 0
-24 28 4 0
-21 -41 -25 -1 0
-22 -42 -26 -2 0
-23 -43 -27 -3 0
-24 -44 -28 -4 0
-25 -117 0
-25 -118 0
-26 117 0
-26 -118 0
-27 -117 0
-27 118 0
-28 117 0
-28 118 0
-25 45 29 5 0
-25 45 29 21 0
-25 45 5 21 0
-25 29 5 21 0
-26 46 30 6 0
-26 46 30 22 0
-26 46 6 22 0
-26 30 6 22 0
-27 47 31 7 0
-27 47 31 23 0
-27 47 7 23 0
-27 31 7 23 0
-28 48 32 8 0
-28 48 32 24 0
-28 48 8 24 0
-28 32 8 24 0
-25 -45 -29 -5 0
-25 -45 -29 -21 0
-25 -45 -5 -21 0
-25 -29 -5 -21 0
-26 -46 -30 -6 0
-26 -46 -30 -22 0
-26 -46 -6 -22 0
-26 -30 -6 -22 0
-27 -47 -31 -7 0
-27 -47 -31 -23 0
-27 -47 -7 -23 0
-27 -31 -7 -23 0
-28 -48 -32 -8 0
-28 -48 -32 -24 0
-28 -48 -8 -24 0
-28 -32 -8 -24 0
-29 0
-31 0
-32 0
30 0
50 34 10 26 0
-50 -34 0
-50 -10 0
-50 -26 0
-34 -10 0
-34 -26 0
-10 -26 0
-33 -121 0
-33 -122 0
-34 121 0
-34 -122 0
-35 -121 0
-35 122 0
-36 121 0
-36 122 0
-33 53 37 13 0
-33 53 37 29 0
-33 53 13 29 0
-33 37 13 29 0
-34 54 38 14 0
-34 54 38 30 0
-34 54 14 30 0
-34 38 14 30 0
-35 55 39 15 0
-35 55 39 31 0
-35 55 15 31 0
-35 39 15 31 0
-36 56 40 16 0
-36 56 40 32 0
-36 56 16 32 0
-36 40 16 32 0
-33 -53 -37 -13 0
-33 -53 -37 -29 0
-33 -53 -13 -29 0
-33 -37 -13 -29 0
-34 -54 -38 -14 0
-34 -54 -38 -30 0
-34 -54 -14 -30 0
-34 -38 -14 -30 0
-35 -55 -39 -15 0
-35 -55 -39 -31 0
-35 -55 -15 -31 0
-35 -39 -15 -31 0
-36 -56 -40 -16 0
-36 -56 -40 -32 0
-36 -56 -16 -32 0
-36 -40 -16 -32 0
-38 0
-39 0
-40 0
37 0
57 33 17 0
-57 -33 0
-57 -17 0
-33 -17 0
-41 -125 0
-41 -126 0
-42 125 0
-42 -126 0
-43 -125 0
-43 126 0
-44 125 0
-44 126 0
-41 61 45 0
-41 61 21 0
-41 45 21 0
-42 62 46 0
-42 62 22 0
-42 46 22 0
-43 63 47 0
-43 63 23 0
-43 47 23 0
-44 64 48 0
-44 64 24 0
-44 48 24 0
-41 -61 -45 -21 0
-42 -62 -46 -22 0
-43 -63 -47 -23 0
-44 -64 -48 -24 0
-45 -127 0
-45 -128 0
-46 127 0
-46 -128 0
-47 -127 0
-47 128 0
-48 127 0
-48 128 0
-45 65 49 25 0
-45 65 49 41 0
-45 65 25 41 0
-45 49 25 41 0
-46 66 50 26 0
-46 66 50 42 0
-46 66 26 42 0
-46 50 26 42 0
-47 67 51 27 0
-47 67 51 43 0
-47 67 27 43 0
-47 51 27 43 0
-48 68 52 28 0
-48 68 52 44 0
-48 68 28 44 0
-48 52 28 44 0
-45 -65 -49 -25 0
-45 -65 -49 -41 0
-45 -65 -25 -41 0
-45 -49 -25 -41 0
-46 -66 -50 -26 0
-46 -66 -50 -42 0
-46 -66 -26 -42 0
-46 -50 -26 -42 0
-47 -67 -51 -27 0
-47 -67 -51 -43 0
-47 -67 -27 -43 0
-47 -51 -27 -43 0
-48 -68 -52 -28 0
-48 -68 -52 -44 0
-48 -68 -28 -44 0
-48 -52 -28 -44 0
-49 0
-50 0
-51 0
52 0
72 56 32 48 0
-72 -56 0
-72 -32 0
-72 -48 0
-56 -32 0
-56 -48 0
-32 -48 0
-53 0
-54 0
-55 0
56 0
76 60 36 52 0
-76 -60 0
-76 -36 0
-76 -52 0
-60 -36 0
-60 -52 0
-36 -52 0
-57 -133 0
-57 -134 0
-58 133 0
-58 -134 0
-59 -133 0
-59 134 0
-60 133 0
-60 134 0
-57 77 53 0
-57 77 37 0
-57 53 37 0
-58 78 54 0
-58 78 38 0
-58 54 38 0
-59 79 55 0
-59 79 39 0
-59 55 39 0
-60 80 56 0
-60 80 40 0
-60 56 40 0
-57 -77 -53 -37 0
-58 -78 -54 -38 0
-59 -79 -55 -39 0
-60 -80 -56 -40 0
-61 -135 0
-61 -136 0
-62 135 0
-62 -136 0
-63 -135 0
-63 136 0
-64 135 0
-64 136 0
-61 81 65 0
-61 81 41 0
-61 65 41 0
-62 82 66 0
-62 82 42 0
-62 66 42 0
-63 83 67 0
-63 83 43 0
-63 67 43 0
-64 84 68 0
-64 84 44 0
-64 68 44 0
-61 -81 -65 -41 0
-62 -82 -66 -42 0
-63 -83 -67 -43 0
-64 -84 -68 -44 0
-66 0
-67 0
-68 0
65 0
85 69 45 61 0
-85 -69 0
-85 -45 0
-85 -61 0
-69 -45 0
-69 -61 0
-45 -61 0
-69 -139 0
-69 -140 0
-70 139 0
-70 -140 0
-71 -139 0
-71 140 0
-72 139 0
-72 140 0
-69 89 73 49 0
-69 89 73 65 0
-69 89 49 65 0
-69 73 49 65 0
-70 90 74 50 0
-70 90 74 66 0
-70 90 50 66 0
-70 74 50 66 0
-71 91 75 51 0
-71 91 75 67 0
-71 91 51 67 0
-71 75 51 67 0
-72 92 76 52 0
-72 92 76 68 0
-72 92 52 68 0
-72 76 52 68 0
-69 -89 -73 -49 0
-69 -89 -73 -65 0
-69 -89 -49 -65 0
-69 -73 -49 -65 0
-70 -90 -74 -50 0
-70 -90 -74 -66 0
-70 -90 -50 -66 0
-70 -74 -50 -66 0
-71 -91 -75 -51 0
-71 -91 -75 -67 0
-71 -91 -51 -67 0
-71 -75 -51 -67 0
-72 -92 -76 -52 0
-72 -92 -76 -68 0
-72 -92 -52 -68 0
-72 -76 -52 -68 0
-73 -141 0
-73 -142 0
-74 141 0
-74 -142 0
-75 -141 0
-75 142 0
-76 141 0
-76 142 0
-73 93 77 53 0
-73 93 77 69 0
-73 93 53 69 0
-73 77 53 69 0
-74 94 78 54 0
-74 94 78 70 0
-74 94 54 70 0
-74 78 54 70 0
-75 95 79 55 0
-75 95 79 71 0
-75 95 55 71 0
-75 79 55 71 0
-76 96 80 56 0
-76 96 80 72 0
-76 96 56 72 0
-76 80 56 72 0
-73 -93 -77 -53 0
-73 -93 -77 -69 0
-73 -93 -53 -69 0
-73 -77 -53 -69 0
-74 -94 -78 -54 0
-74 -94 -78 -70 0
-74 -94 -54 -70 0
-74 -78 -54 -70 0
-75 -95 -79 -55 0
-75 -95 -79 -71 0
-75 -95 -55 -71 0
-75 -79 -55 -71 0
-76 -96 -80 -56 0
-76 -96 -80 -72 0
-76 -96 -56 -72 0
-76 -80 -56 -72 0
-77 -143 0
-77 -144 0
-78 143 0
-78 -144 0
-79 -143 0
-79 144 0
-80 143 0
-80 144 0
-77 97 73 0
-77 97 57 0
-77 73 57 0
-78 98 74 0
-78 98 58 0
-78 74 58 0
-79 99 75 0
-79 99 59 0
-79 75 59 0
-80 100 76 0
-80 100 60 0
-80 76 60 0
-77 -97 -73 -57 0
-78 -98 -74 -58 0
-79 -99 -75 -59 0
-80 -100 -76 -60 0
-81 -145 0
-81 -146 0
-82 145 0
-82 -146 0
-83 -145 0
-83 146 0
-84 145 0
-84 146 0
-81 61 0
-81 85 0
-82 62 0
-82 86 0
-83 63 0
-83 87 0
-84 64 0
-84 88 0
-85 -147 0
-85 -148 0
-86 147 0
-86 -148 0
-87 -147 0
-87 148 0
-88 147 0
-88 148 0
-85 65 89 0
-85 65 81 0
-85 89 81 0
-86 66 90 0
-86 66 82 0
-86 90 82 0
-87 67 91 0
-87 67 83 0
-87 91 83 0
-88 68 92 0
-88 68 84 0
-88 92 84 0
-85 -65 -89 -81 0
-86 -66 -90 -82 0
-87 -67 -91 -83 0
-88 -68 -92 -84 0
-89 -149 0
-89 -150 0
-90 149 0
-90 -150 0
-91 -149 0
-91 150 0
-92 149 0
-92 150 0
-89 69 93 0
-89 69 85 0
-89 93 85 0
-90 70 94 0
-90 70 86 0
-90 94 86 0
-91 71 95 0
-91 71 87 0
-91 95 87 0
-92 72 96 0
-92 72 88 0
-92 96 88 0
-89 -69 -93 -85 0
-90 -70 -94 -86 0
-91 -71 -95 -87 0
-92 -72 -96 -88 0
-93 0
-95 0
-96 0
94 0
74 98 90 0
-74 -98 0
-74 -90 0
-98 -90 0
-97 -153 0
-97 -154 0
-98 153 0
-98 -154 0
-99 -153 0
-99 154 0
-100 153 0
-100 154 0
-97 77 0
-97 93 0
-98 78 0
-98 94 0
-99 79 0
-99 95 0
-100 80 0
-100 96 0